






































































45 38 
56 64 
76 66 
16 22 
35 
2 51 
65 54 
37 39 
44 58 
6 48 
1 36 
46 
73 24 
3 34 
11 59 
43 18 
68 31 
5 7 
53 13 
14 32 
74 40 

28 57 
49 29 
42 67 
15 
60 71 
63 9 
8 70 
23 55 
30 61 
25 21 
0 19 
4 17 
41 62 
10 
27 
20 75 
72 69 
12 50 
33 
47 
26 52 

